NAME: random_70_9
TYPE: TSP
COMMENT: random_70_9
DIMENSION: 70
EDGE_WEIGHT_TYPE: EUC_2D
NODE_COORD_SECTION
1 115 361
2 469 337
3 73 264
4 444 423
5 333 133
6 329 44
7 188 198
8 339 45
9 173 124
10 218 241
11 83 121
12 344 299
13 52 34
14 303 283
15 397 224
16 21 300
17 436 286
18 311 241
19 483 279
20 338 356
21 34 155
22 452 53
23 223 51
24 336 392
25 379 114
26 114 128
27 187 224
28 173 253
29 321 224
30 184 47
31 245 8
32 332 184
33 240 297
34 210 334
35 41 325
36 142 447
37 329 238
38 394 232
39 287 295
40 105 190
41 72 332
42 454 442
43 98 434
44 143 418
45 192 18
46 96 323
47 176 322
48 408 90
49 244 329
50 202 58
51 205 232
52 490 273
53 326 400
54 301 193
55 199 333
56 160 423
57 354 61
58 96 375
59 448 431
60 248 436
61 356 386
62 461 283
63 315 190
64 318 84
65 31 88
66 478 490
67 319 339
68 202 436
69 249 222
70 453 338
